% seed = 1987899

mint = 46;
% maxt = 107;

nActs = 22;
dur = [0,5,1,9,4,6,8,9,8,5,1,8,1,9,1,5,8,5,8,4,2,0];

nSkills = 4;
sreq = [| 0,0,0,0,
	| 2,2,2,0,
	| 0,1,3,3,
	| 1,1,0,2,
	| 0,2,2,1,
	| 0,3,2,2,
	| 2,1,3,0,
	| 1,0,3,2,
	| 3,2,0,1,
	| 3,0,1,3,
	| 1,2,2,0,
	| 2,2,2,0,
	| 2,2,3,0,
	| 0,2,3,2,
	| 3,0,3,1,
	| 0,1,1,1,
	| 3,0,2,2,
	| 1,1,1,0,
	| 2,3,3,0,
	| 2,2,0,3,
	| 3,2,1,0,
	| 0,0,0,0, |];

nResources = 10;
mastery = [| true,false,true,false,
	| false,true,false,true,
	| false,false,true,true,
	| false,false,true,false,
	| true,true,false,true,
	| true,false,true,true,
	| true,true,false,true,
	| false,false,false,true,
	| false,true,true,false,
	| false,true,false,true, |];

nPrecs = 31;
pred = [1,1,1,2,2,3,3,4,5,5,6,6,6,7,8,9,9,9,10,11,12,13,14,15,15,16,17,18,19,20,21];
succ = [2,3,4,14,7,6,8,5,10,15,9,12,13,20,15,18,21,16,11,21,14,20,16,17,19,17,18,20,22,22,22];

nUnrels = 111;
unpred = [2,2,2,2,2,2,2,2,2,2,2,2,2,3,3,3,3,3,4,4,4,4,4,4,4,4,5,5,5,5,5,5,5,5,6,6,6,6,6,6,7,7,7,7,7,7,7,7,7,7,7,7,7,8,8,8,8,8,8,8,8,9,9,9,9,9,9,9,10,10,10,10,10,10,10,10,10,11,11,11,11,11,11,11,11,11,12,12,12,12,13,13,13,13,13,13,13,14,14,14,15,15,16,16,17,17,18,18,19,19,20];
unsucc = [3,4,5,6,8,9,10,11,12,13,15,19,21,4,5,7,10,11,6,7,8,9,12,13,14,16,6,7,8,9,12,13,14,16,7,8,10,11,15,19,8,9,10,11,12,13,14,15,16,17,18,19,21,9,10,11,12,13,14,16,21,10,11,12,13,14,15,19,12,13,14,15,16,17,18,19,20,12,13,14,15,16,17,18,19,20,13,15,19,21,14,15,16,17,18,19,21,15,19,21,16,21,19,21,19,21,19,21,20,21,21];

USEFUL_RES = [{},
	{1,2,3,4,5,6,7,9,10},
	{1,2,3,4,5,6,7,8,9,10},
	{1,2,3,5,6,7,8,9,10},
	{1,2,3,4,5,6,7,8,9,10},
	{1,2,3,4,5,6,7,8,9,10},
	{1,2,3,4,5,6,7,9,10},
	{1,2,3,4,5,6,7,8,9,10},
	{1,2,3,5,6,7,8,9,10},
	{1,2,3,4,5,6,7,8,9,10},
	{1,2,3,4,5,6,7,9,10},
	{1,2,3,4,5,6,7,9,10},
	{1,2,3,4,5,6,7,9,10},
	{1,2,3,4,5,6,7,8,9,10},
	{1,2,3,4,5,6,7,8,9,10},
	{1,2,3,4,5,6,7,8,9,10},
	{1,2,3,4,5,6,7,8,9,10},
	{1,2,3,4,5,6,7,9,10},
	{1,2,3,4,5,6,7,9,10},
	{1,2,3,5,6,7,8,9,10},
	{1,2,3,4,5,6,7,9,10},
	{}];

POTENTIAL_ACT = [{2,3,4,5,6,7,8,9,10,11,12,13,14,15,16,17,18,19,20,21},
	{2,3,4,5,6,7,8,9,10,11,12,13,14,15,16,17,18,19,20,21},
	{2,3,4,5,6,7,8,9,10,11,12,13,14,15,16,17,18,19,20,21},
	{2,3,5,6,7,8,10,11,12,13,14,15,16,17,18,19,21},
	{2,3,4,5,6,7,8,9,10,11,12,13,14,15,16,17,18,19,20,21},
	{2,3,4,5,6,7,8,9,10,11,12,13,14,15,16,17,18,19,20,21},
	{2,3,4,5,6,7,8,9,10,11,12,13,14,15,16,17,18,19,20,21},
	{3,4,5,6,8,9,10,14,15,16,17,20},
	{2,3,4,5,6,7,8,9,10,11,12,13,14,15,16,17,18,19,20,21},
	{2,3,4,5,6,7,8,9,10,11,12,13,14,15,16,17,18,19,20,21}];
